\ENCODING=ISO-8859-1
\Problem name: IloCplex

Maximize
 obj1: 8 x1 + 4 x2 + 2 x3 + 9 x4 + 3 x5
Subject To
 c1: 13 x1 + 12 x2 + 7 x3 + 11 x4 + 9 x5 <= 40
Bounds
 0 <= x1 <= 1
 0 <= x2 <= 1
 0 <= x3 <= 1
 0 <= x4 <= 1
 0 <= x5 <= 1
Binaries
 x1  x2  x3  x4  x5 
End
